\* question-1-assignment-1 *\
Maximize
OBJ: 3 x_1 + 2 x_2
Subject To
Constraint_1: 3 x_1 + 3 x_2 <= 300
Constraint_2: 6 x_1 + 3 x_2 <= 480
Constraint_3: 3 x_1 + 3 x_2 <= 480
Bounds
 0 <= x_1
 0 <= x_2
Generals
x_1
x_2
End
